(set-logic QF_LRA)
(declare-fun X0 () Real )
(declare-fun Y0 () Real )
(declare-fun X1 () Real )
(declare-fun Y1 () Real )
(declare-fun X2 () Real )
(declare-fun Y2 () Real )
(declare-fun X3 () Real )
(declare-fun Y3 () Real )
(declare-fun X4 () Real )
(declare-fun Y4 () Real )
(declare-fun X5 () Real )
(declare-fun Y5 () Real )
(declare-fun X6 () Real )
(declare-fun Y6 () Real )
(declare-fun X7 () Real )
(declare-fun Y7 () Real )
(declare-fun X8 () Real )
(declare-fun Y8 () Real )
(declare-fun X9 () Real )
(declare-fun Y9 () Real )
(declare-fun X10 () Real )
(declare-fun Y10 () Real )
(declare-fun X11 () Real )
(declare-fun Y11 () Real )
(declare-fun X12 () Real )
(declare-fun Y12 () Real )
(declare-fun X13 () Real )
(declare-fun Y13 () Real )
(declare-fun X14 () Real )
(declare-fun Y14 () Real )
(declare-fun X15 () Real )
(declare-fun Y15 () Real )
(declare-fun X16 () Real )
(declare-fun Y16 () Real )
(declare-fun X17 () Real )
(declare-fun Y17 () Real )
(declare-fun Z () Real )
(declare-fun k () Real )
(assert (let
(( $goal (>= Z k) ))
(let
((
$phi ( and 
( or ( <= ( + X0 51 ) X1 )  ( <= ( + X1 83 ) X0 )  ( <= ( + Y0 33 ) Y1 )  ( <= ( + Y1 75 ) Y0 )  )
( or ( <= ( + X0 51 ) X2 )  ( <= ( + X2 29 ) X0 )  ( <= ( + Y0 33 ) Y2 )  ( <= ( + Y2 20 ) Y0 )  )
( or ( <= ( + X0 51 ) X3 )  ( <= ( + X3 50 ) X0 )  ( <= ( + Y0 33 ) Y3 )  ( <= ( + Y3 51 ) Y0 )  )
( or ( <= ( + X0 51 ) X4 )  ( <= ( + X4 27 ) X0 )  ( <= ( + Y0 33 ) Y4 )  ( <= ( + Y4 32 ) Y0 )  )
( or ( <= ( + X0 51 ) X5 )  ( <= ( + X5 37 ) X0 )  ( <= ( + Y0 33 ) Y5 )  ( <= ( + Y5 14 ) Y0 )  )
( or ( <= ( + X0 51 ) X6 )  ( <= ( + X6 55 ) X0 )  ( <= ( + Y0 33 ) Y6 )  ( <= ( + Y6 17 ) Y0 )  )
( or ( <= ( + X0 51 ) X7 )  ( <= ( + X7 28 ) X0 )  ( <= ( + Y0 33 ) Y7 )  ( <= ( + Y7 66 ) Y0 )  )
( or ( <= ( + X0 51 ) X8 )  ( <= ( + X8 29 ) X0 )  ( <= ( + Y0 33 ) Y8 )  ( <= ( + Y8 93 ) Y0 )  )
( or ( <= ( + X0 51 ) X9 )  ( <= ( + X9 26 ) X0 )  ( <= ( + Y0 33 ) Y9 )  ( <= ( + Y9 65 ) Y0 )  )
( or ( <= ( + X0 51 ) X10 )  ( <= ( + X10 89 ) X0 )  ( <= ( + Y0 33 ) Y10 )  ( <= ( + Y10 93 ) Y0 )  )
( or ( <= ( + X0 51 ) X11 )  ( <= ( + X11 75 ) X0 )  ( <= ( + Y0 33 ) Y11 )  ( <= ( + Y11 2 ) Y0 )  )
( or ( <= ( + X0 51 ) X12 )  ( <= ( + X12 91 ) X0 )  ( <= ( + Y0 33 ) Y12 )  ( <= ( + Y12 53 ) Y0 )  )
( or ( <= ( + X0 51 ) X13 )  ( <= ( + X13 31 ) X0 )  ( <= ( + Y0 33 ) Y13 )  ( <= ( + Y13 96 ) Y0 )  )
( or ( <= ( + X0 51 ) X14 )  ( <= ( + X14 22 ) X0 )  ( <= ( + Y0 33 ) Y14 )  ( <= ( + Y14 37 ) Y0 )  )
( or ( <= ( + X0 51 ) X15 )  ( <= ( + X15 64 ) X0 )  ( <= ( + Y0 33 ) Y15 )  ( <= ( + Y15 81 ) Y0 )  )
( or ( <= ( + X0 51 ) X16 )  ( <= ( + X16 72 ) X0 )  ( <= ( + Y0 33 ) Y16 )  ( <= ( + Y16 45 ) Y0 )  )
( or ( <= ( + X0 51 ) X17 )  ( <= ( + X17 37 ) X0 )  ( <= ( + Y0 33 ) Y17 )  ( <= ( + Y17 15 ) Y0 )  )
( or ( <= ( + X1 83 ) X2 )  ( <= ( + X2 29 ) X1 )  ( <= ( + Y1 75 ) Y2 )  ( <= ( + Y2 20 ) Y1 )  )
( or ( <= ( + X1 83 ) X3 )  ( <= ( + X3 50 ) X1 )  ( <= ( + Y1 75 ) Y3 )  ( <= ( + Y3 51 ) Y1 )  )
( or ( <= ( + X1 83 ) X4 )  ( <= ( + X4 27 ) X1 )  ( <= ( + Y1 75 ) Y4 )  ( <= ( + Y4 32 ) Y1 )  )
( or ( <= ( + X1 83 ) X5 )  ( <= ( + X5 37 ) X1 )  ( <= ( + Y1 75 ) Y5 )  ( <= ( + Y5 14 ) Y1 )  )
( or ( <= ( + X1 83 ) X6 )  ( <= ( + X6 55 ) X1 )  ( <= ( + Y1 75 ) Y6 )  ( <= ( + Y6 17 ) Y1 )  )
( or ( <= ( + X1 83 ) X7 )  ( <= ( + X7 28 ) X1 )  ( <= ( + Y1 75 ) Y7 )  ( <= ( + Y7 66 ) Y1 )  )
( or ( <= ( + X1 83 ) X8 )  ( <= ( + X8 29 ) X1 )  ( <= ( + Y1 75 ) Y8 )  ( <= ( + Y8 93 ) Y1 )  )
( or ( <= ( + X1 83 ) X9 )  ( <= ( + X9 26 ) X1 )  ( <= ( + Y1 75 ) Y9 )  ( <= ( + Y9 65 ) Y1 )  )
( or ( <= ( + X1 83 ) X10 )  ( <= ( + X10 89 ) X1 )  ( <= ( + Y1 75 ) Y10 )  ( <= ( + Y10 93 ) Y1 )  )
( or ( <= ( + X1 83 ) X11 )  ( <= ( + X11 75 ) X1 )  ( <= ( + Y1 75 ) Y11 )  ( <= ( + Y11 2 ) Y1 )  )
( or ( <= ( + X1 83 ) X12 )  ( <= ( + X12 91 ) X1 )  ( <= ( + Y1 75 ) Y12 )  ( <= ( + Y12 53 ) Y1 )  )
( or ( <= ( + X1 83 ) X13 )  ( <= ( + X13 31 ) X1 )  ( <= ( + Y1 75 ) Y13 )  ( <= ( + Y13 96 ) Y1 )  )
( or ( <= ( + X1 83 ) X14 )  ( <= ( + X14 22 ) X1 )  ( <= ( + Y1 75 ) Y14 )  ( <= ( + Y14 37 ) Y1 )  )
( or ( <= ( + X1 83 ) X15 )  ( <= ( + X15 64 ) X1 )  ( <= ( + Y1 75 ) Y15 )  ( <= ( + Y15 81 ) Y1 )  )
( or ( <= ( + X1 83 ) X16 )  ( <= ( + X16 72 ) X1 )  ( <= ( + Y1 75 ) Y16 )  ( <= ( + Y16 45 ) Y1 )  )
( or ( <= ( + X1 83 ) X17 )  ( <= ( + X17 37 ) X1 )  ( <= ( + Y1 75 ) Y17 )  ( <= ( + Y17 15 ) Y1 )  )
( or ( <= ( + X2 29 ) X3 )  ( <= ( + X3 50 ) X2 )  ( <= ( + Y2 20 ) Y3 )  ( <= ( + Y3 51 ) Y2 )  )
( or ( <= ( + X2 29 ) X4 )  ( <= ( + X4 27 ) X2 )  ( <= ( + Y2 20 ) Y4 )  ( <= ( + Y4 32 ) Y2 )  )
( or ( <= ( + X2 29 ) X5 )  ( <= ( + X5 37 ) X2 )  ( <= ( + Y2 20 ) Y5 )  ( <= ( + Y5 14 ) Y2 )  )
( or ( <= ( + X2 29 ) X6 )  ( <= ( + X6 55 ) X2 )  ( <= ( + Y2 20 ) Y6 )  ( <= ( + Y6 17 ) Y2 )  )
( or ( <= ( + X2 29 ) X7 )  ( <= ( + X7 28 ) X2 )  ( <= ( + Y2 20 ) Y7 )  ( <= ( + Y7 66 ) Y2 )  )
( or ( <= ( + X2 29 ) X8 )  ( <= ( + X8 29 ) X2 )  ( <= ( + Y2 20 ) Y8 )  ( <= ( + Y8 93 ) Y2 )  )
( or ( <= ( + X2 29 ) X9 )  ( <= ( + X9 26 ) X2 )  ( <= ( + Y2 20 ) Y9 )  ( <= ( + Y9 65 ) Y2 )  )
( or ( <= ( + X2 29 ) X10 )  ( <= ( + X10 89 ) X2 )  ( <= ( + Y2 20 ) Y10 )  ( <= ( + Y10 93 ) Y2 )  )
( or ( <= ( + X2 29 ) X11 )  ( <= ( + X11 75 ) X2 )  ( <= ( + Y2 20 ) Y11 )  ( <= ( + Y11 2 ) Y2 )  )
( or ( <= ( + X2 29 ) X12 )  ( <= ( + X12 91 ) X2 )  ( <= ( + Y2 20 ) Y12 )  ( <= ( + Y12 53 ) Y2 )  )
( or ( <= ( + X2 29 ) X13 )  ( <= ( + X13 31 ) X2 )  ( <= ( + Y2 20 ) Y13 )  ( <= ( + Y13 96 ) Y2 )  )
( or ( <= ( + X2 29 ) X14 )  ( <= ( + X14 22 ) X2 )  ( <= ( + Y2 20 ) Y14 )  ( <= ( + Y14 37 ) Y2 )  )
( or ( <= ( + X2 29 ) X15 )  ( <= ( + X15 64 ) X2 )  ( <= ( + Y2 20 ) Y15 )  ( <= ( + Y15 81 ) Y2 )  )
( or ( <= ( + X2 29 ) X16 )  ( <= ( + X16 72 ) X2 )  ( <= ( + Y2 20 ) Y16 )  ( <= ( + Y16 45 ) Y2 )  )
( or ( <= ( + X2 29 ) X17 )  ( <= ( + X17 37 ) X2 )  ( <= ( + Y2 20 ) Y17 )  ( <= ( + Y17 15 ) Y2 )  )
( or ( <= ( + X3 50 ) X4 )  ( <= ( + X4 27 ) X3 )  ( <= ( + Y3 51 ) Y4 )  ( <= ( + Y4 32 ) Y3 )  )
( or ( <= ( + X3 50 ) X5 )  ( <= ( + X5 37 ) X3 )  ( <= ( + Y3 51 ) Y5 )  ( <= ( + Y5 14 ) Y3 )  )
( or ( <= ( + X3 50 ) X6 )  ( <= ( + X6 55 ) X3 )  ( <= ( + Y3 51 ) Y6 )  ( <= ( + Y6 17 ) Y3 )  )
( or ( <= ( + X3 50 ) X7 )  ( <= ( + X7 28 ) X3 )  ( <= ( + Y3 51 ) Y7 )  ( <= ( + Y7 66 ) Y3 )  )
( or ( <= ( + X3 50 ) X8 )  ( <= ( + X8 29 ) X3 )  ( <= ( + Y3 51 ) Y8 )  ( <= ( + Y8 93 ) Y3 )  )
( or ( <= ( + X3 50 ) X9 )  ( <= ( + X9 26 ) X3 )  ( <= ( + Y3 51 ) Y9 )  ( <= ( + Y9 65 ) Y3 )  )
( or ( <= ( + X3 50 ) X10 )  ( <= ( + X10 89 ) X3 )  ( <= ( + Y3 51 ) Y10 )  ( <= ( + Y10 93 ) Y3 )  )
( or ( <= ( + X3 50 ) X11 )  ( <= ( + X11 75 ) X3 )  ( <= ( + Y3 51 ) Y11 )  ( <= ( + Y11 2 ) Y3 )  )
( or ( <= ( + X3 50 ) X12 )  ( <= ( + X12 91 ) X3 )  ( <= ( + Y3 51 ) Y12 )  ( <= ( + Y12 53 ) Y3 )  )
( or ( <= ( + X3 50 ) X13 )  ( <= ( + X13 31 ) X3 )  ( <= ( + Y3 51 ) Y13 )  ( <= ( + Y13 96 ) Y3 )  )
( or ( <= ( + X3 50 ) X14 )  ( <= ( + X14 22 ) X3 )  ( <= ( + Y3 51 ) Y14 )  ( <= ( + Y14 37 ) Y3 )  )
( or ( <= ( + X3 50 ) X15 )  ( <= ( + X15 64 ) X3 )  ( <= ( + Y3 51 ) Y15 )  ( <= ( + Y15 81 ) Y3 )  )
( or ( <= ( + X3 50 ) X16 )  ( <= ( + X16 72 ) X3 )  ( <= ( + Y3 51 ) Y16 )  ( <= ( + Y16 45 ) Y3 )  )
( or ( <= ( + X3 50 ) X17 )  ( <= ( + X17 37 ) X3 )  ( <= ( + Y3 51 ) Y17 )  ( <= ( + Y17 15 ) Y3 )  )
( or ( <= ( + X4 27 ) X5 )  ( <= ( + X5 37 ) X4 )  ( <= ( + Y4 32 ) Y5 )  ( <= ( + Y5 14 ) Y4 )  )
( or ( <= ( + X4 27 ) X6 )  ( <= ( + X6 55 ) X4 )  ( <= ( + Y4 32 ) Y6 )  ( <= ( + Y6 17 ) Y4 )  )
( or ( <= ( + X4 27 ) X7 )  ( <= ( + X7 28 ) X4 )  ( <= ( + Y4 32 ) Y7 )  ( <= ( + Y7 66 ) Y4 )  )
( or ( <= ( + X4 27 ) X8 )  ( <= ( + X8 29 ) X4 )  ( <= ( + Y4 32 ) Y8 )  ( <= ( + Y8 93 ) Y4 )  )
( or ( <= ( + X4 27 ) X9 )  ( <= ( + X9 26 ) X4 )  ( <= ( + Y4 32 ) Y9 )  ( <= ( + Y9 65 ) Y4 )  )
( or ( <= ( + X4 27 ) X10 )  ( <= ( + X10 89 ) X4 )  ( <= ( + Y4 32 ) Y10 )  ( <= ( + Y10 93 ) Y4 )  )
( or ( <= ( + X4 27 ) X11 )  ( <= ( + X11 75 ) X4 )  ( <= ( + Y4 32 ) Y11 )  ( <= ( + Y11 2 ) Y4 )  )
( or ( <= ( + X4 27 ) X12 )  ( <= ( + X12 91 ) X4 )  ( <= ( + Y4 32 ) Y12 )  ( <= ( + Y12 53 ) Y4 )  )
( or ( <= ( + X4 27 ) X13 )  ( <= ( + X13 31 ) X4 )  ( <= ( + Y4 32 ) Y13 )  ( <= ( + Y13 96 ) Y4 )  )
( or ( <= ( + X4 27 ) X14 )  ( <= ( + X14 22 ) X4 )  ( <= ( + Y4 32 ) Y14 )  ( <= ( + Y14 37 ) Y4 )  )
( or ( <= ( + X4 27 ) X15 )  ( <= ( + X15 64 ) X4 )  ( <= ( + Y4 32 ) Y15 )  ( <= ( + Y15 81 ) Y4 )  )
( or ( <= ( + X4 27 ) X16 )  ( <= ( + X16 72 ) X4 )  ( <= ( + Y4 32 ) Y16 )  ( <= ( + Y16 45 ) Y4 )  )
( or ( <= ( + X4 27 ) X17 )  ( <= ( + X17 37 ) X4 )  ( <= ( + Y4 32 ) Y17 )  ( <= ( + Y17 15 ) Y4 )  )
( or ( <= ( + X5 37 ) X6 )  ( <= ( + X6 55 ) X5 )  ( <= ( + Y5 14 ) Y6 )  ( <= ( + Y6 17 ) Y5 )  )
( or ( <= ( + X5 37 ) X7 )  ( <= ( + X7 28 ) X5 )  ( <= ( + Y5 14 ) Y7 )  ( <= ( + Y7 66 ) Y5 )  )
( or ( <= ( + X5 37 ) X8 )  ( <= ( + X8 29 ) X5 )  ( <= ( + Y5 14 ) Y8 )  ( <= ( + Y8 93 ) Y5 )  )
( or ( <= ( + X5 37 ) X9 )  ( <= ( + X9 26 ) X5 )  ( <= ( + Y5 14 ) Y9 )  ( <= ( + Y9 65 ) Y5 )  )
( or ( <= ( + X5 37 ) X10 )  ( <= ( + X10 89 ) X5 )  ( <= ( + Y5 14 ) Y10 )  ( <= ( + Y10 93 ) Y5 )  )
( or ( <= ( + X5 37 ) X11 )  ( <= ( + X11 75 ) X5 )  ( <= ( + Y5 14 ) Y11 )  ( <= ( + Y11 2 ) Y5 )  )
( or ( <= ( + X5 37 ) X12 )  ( <= ( + X12 91 ) X5 )  ( <= ( + Y5 14 ) Y12 )  ( <= ( + Y12 53 ) Y5 )  )
( or ( <= ( + X5 37 ) X13 )  ( <= ( + X13 31 ) X5 )  ( <= ( + Y5 14 ) Y13 )  ( <= ( + Y13 96 ) Y5 )  )
( or ( <= ( + X5 37 ) X14 )  ( <= ( + X14 22 ) X5 )  ( <= ( + Y5 14 ) Y14 )  ( <= ( + Y14 37 ) Y5 )  )
( or ( <= ( + X5 37 ) X15 )  ( <= ( + X15 64 ) X5 )  ( <= ( + Y5 14 ) Y15 )  ( <= ( + Y15 81 ) Y5 )  )
( or ( <= ( + X5 37 ) X16 )  ( <= ( + X16 72 ) X5 )  ( <= ( + Y5 14 ) Y16 )  ( <= ( + Y16 45 ) Y5 )  )
( or ( <= ( + X5 37 ) X17 )  ( <= ( + X17 37 ) X5 )  ( <= ( + Y5 14 ) Y17 )  ( <= ( + Y17 15 ) Y5 )  )
( or ( <= ( + X6 55 ) X7 )  ( <= ( + X7 28 ) X6 )  ( <= ( + Y6 17 ) Y7 )  ( <= ( + Y7 66 ) Y6 )  )
( or ( <= ( + X6 55 ) X8 )  ( <= ( + X8 29 ) X6 )  ( <= ( + Y6 17 ) Y8 )  ( <= ( + Y8 93 ) Y6 )  )
( or ( <= ( + X6 55 ) X9 )  ( <= ( + X9 26 ) X6 )  ( <= ( + Y6 17 ) Y9 )  ( <= ( + Y9 65 ) Y6 )  )
( or ( <= ( + X6 55 ) X10 )  ( <= ( + X10 89 ) X6 )  ( <= ( + Y6 17 ) Y10 )  ( <= ( + Y10 93 ) Y6 )  )
( or ( <= ( + X6 55 ) X11 )  ( <= ( + X11 75 ) X6 )  ( <= ( + Y6 17 ) Y11 )  ( <= ( + Y11 2 ) Y6 )  )
( or ( <= ( + X6 55 ) X12 )  ( <= ( + X12 91 ) X6 )  ( <= ( + Y6 17 ) Y12 )  ( <= ( + Y12 53 ) Y6 )  )
( or ( <= ( + X6 55 ) X13 )  ( <= ( + X13 31 ) X6 )  ( <= ( + Y6 17 ) Y13 )  ( <= ( + Y13 96 ) Y6 )  )
( or ( <= ( + X6 55 ) X14 )  ( <= ( + X14 22 ) X6 )  ( <= ( + Y6 17 ) Y14 )  ( <= ( + Y14 37 ) Y6 )  )
( or ( <= ( + X6 55 ) X15 )  ( <= ( + X15 64 ) X6 )  ( <= ( + Y6 17 ) Y15 )  ( <= ( + Y15 81 ) Y6 )  )
( or ( <= ( + X6 55 ) X16 )  ( <= ( + X16 72 ) X6 )  ( <= ( + Y6 17 ) Y16 )  ( <= ( + Y16 45 ) Y6 )  )
( or ( <= ( + X6 55 ) X17 )  ( <= ( + X17 37 ) X6 )  ( <= ( + Y6 17 ) Y17 )  ( <= ( + Y17 15 ) Y6 )  )
( or ( <= ( + X7 28 ) X8 )  ( <= ( + X8 29 ) X7 )  ( <= ( + Y7 66 ) Y8 )  ( <= ( + Y8 93 ) Y7 )  )
( or ( <= ( + X7 28 ) X9 )  ( <= ( + X9 26 ) X7 )  ( <= ( + Y7 66 ) Y9 )  ( <= ( + Y9 65 ) Y7 )  )
( or ( <= ( + X7 28 ) X10 )  ( <= ( + X10 89 ) X7 )  ( <= ( + Y7 66 ) Y10 )  ( <= ( + Y10 93 ) Y7 )  )
( or ( <= ( + X7 28 ) X11 )  ( <= ( + X11 75 ) X7 )  ( <= ( + Y7 66 ) Y11 )  ( <= ( + Y11 2 ) Y7 )  )
( or ( <= ( + X7 28 ) X12 )  ( <= ( + X12 91 ) X7 )  ( <= ( + Y7 66 ) Y12 )  ( <= ( + Y12 53 ) Y7 )  )
( or ( <= ( + X7 28 ) X13 )  ( <= ( + X13 31 ) X7 )  ( <= ( + Y7 66 ) Y13 )  ( <= ( + Y13 96 ) Y7 )  )
( or ( <= ( + X7 28 ) X14 )  ( <= ( + X14 22 ) X7 )  ( <= ( + Y7 66 ) Y14 )  ( <= ( + Y14 37 ) Y7 )  )
( or ( <= ( + X7 28 ) X15 )  ( <= ( + X15 64 ) X7 )  ( <= ( + Y7 66 ) Y15 )  ( <= ( + Y15 81 ) Y7 )  )
( or ( <= ( + X7 28 ) X16 )  ( <= ( + X16 72 ) X7 )  ( <= ( + Y7 66 ) Y16 )  ( <= ( + Y16 45 ) Y7 )  )
( or ( <= ( + X7 28 ) X17 )  ( <= ( + X17 37 ) X7 )  ( <= ( + Y7 66 ) Y17 )  ( <= ( + Y17 15 ) Y7 )  )
( or ( <= ( + X8 29 ) X9 )  ( <= ( + X9 26 ) X8 )  ( <= ( + Y8 93 ) Y9 )  ( <= ( + Y9 65 ) Y8 )  )
( or ( <= ( + X8 29 ) X10 )  ( <= ( + X10 89 ) X8 )  ( <= ( + Y8 93 ) Y10 )  ( <= ( + Y10 93 ) Y8 )  )
( or ( <= ( + X8 29 ) X11 )  ( <= ( + X11 75 ) X8 )  ( <= ( + Y8 93 ) Y11 )  ( <= ( + Y11 2 ) Y8 )  )
( or ( <= ( + X8 29 ) X12 )  ( <= ( + X12 91 ) X8 )  ( <= ( + Y8 93 ) Y12 )  ( <= ( + Y12 53 ) Y8 )  )
( or ( <= ( + X8 29 ) X13 )  ( <= ( + X13 31 ) X8 )  ( <= ( + Y8 93 ) Y13 )  ( <= ( + Y13 96 ) Y8 )  )
( or ( <= ( + X8 29 ) X14 )  ( <= ( + X14 22 ) X8 )  ( <= ( + Y8 93 ) Y14 )  ( <= ( + Y14 37 ) Y8 )  )
( or ( <= ( + X8 29 ) X15 )  ( <= ( + X15 64 ) X8 )  ( <= ( + Y8 93 ) Y15 )  ( <= ( + Y15 81 ) Y8 )  )
( or ( <= ( + X8 29 ) X16 )  ( <= ( + X16 72 ) X8 )  ( <= ( + Y8 93 ) Y16 )  ( <= ( + Y16 45 ) Y8 )  )
( or ( <= ( + X8 29 ) X17 )  ( <= ( + X17 37 ) X8 )  ( <= ( + Y8 93 ) Y17 )  ( <= ( + Y17 15 ) Y8 )  )
( or ( <= ( + X9 26 ) X10 )  ( <= ( + X10 89 ) X9 )  ( <= ( + Y9 65 ) Y10 )  ( <= ( + Y10 93 ) Y9 )  )
( or ( <= ( + X9 26 ) X11 )  ( <= ( + X11 75 ) X9 )  ( <= ( + Y9 65 ) Y11 )  ( <= ( + Y11 2 ) Y9 )  )
( or ( <= ( + X9 26 ) X12 )  ( <= ( + X12 91 ) X9 )  ( <= ( + Y9 65 ) Y12 )  ( <= ( + Y12 53 ) Y9 )  )
( or ( <= ( + X9 26 ) X13 )  ( <= ( + X13 31 ) X9 )  ( <= ( + Y9 65 ) Y13 )  ( <= ( + Y13 96 ) Y9 )  )
( or ( <= ( + X9 26 ) X14 )  ( <= ( + X14 22 ) X9 )  ( <= ( + Y9 65 ) Y14 )  ( <= ( + Y14 37 ) Y9 )  )
( or ( <= ( + X9 26 ) X15 )  ( <= ( + X15 64 ) X9 )  ( <= ( + Y9 65 ) Y15 )  ( <= ( + Y15 81 ) Y9 )  )
( or ( <= ( + X9 26 ) X16 )  ( <= ( + X16 72 ) X9 )  ( <= ( + Y9 65 ) Y16 )  ( <= ( + Y16 45 ) Y9 )  )
( or ( <= ( + X9 26 ) X17 )  ( <= ( + X17 37 ) X9 )  ( <= ( + Y9 65 ) Y17 )  ( <= ( + Y17 15 ) Y9 )  )
( or ( <= ( + X10 89 ) X11 )  ( <= ( + X11 75 ) X10 )  ( <= ( + Y10 93 ) Y11 )  ( <= ( + Y11 2 ) Y10 )  )
( or ( <= ( + X10 89 ) X12 )  ( <= ( + X12 91 ) X10 )  ( <= ( + Y10 93 ) Y12 )  ( <= ( + Y12 53 ) Y10 )  )
( or ( <= ( + X10 89 ) X13 )  ( <= ( + X13 31 ) X10 )  ( <= ( + Y10 93 ) Y13 )  ( <= ( + Y13 96 ) Y10 )  )
( or ( <= ( + X10 89 ) X14 )  ( <= ( + X14 22 ) X10 )  ( <= ( + Y10 93 ) Y14 )  ( <= ( + Y14 37 ) Y10 )  )
( or ( <= ( + X10 89 ) X15 )  ( <= ( + X15 64 ) X10 )  ( <= ( + Y10 93 ) Y15 )  ( <= ( + Y15 81 ) Y10 )  )
( or ( <= ( + X10 89 ) X16 )  ( <= ( + X16 72 ) X10 )  ( <= ( + Y10 93 ) Y16 )  ( <= ( + Y16 45 ) Y10 )  )
( or ( <= ( + X10 89 ) X17 )  ( <= ( + X17 37 ) X10 )  ( <= ( + Y10 93 ) Y17 )  ( <= ( + Y17 15 ) Y10 )  )
( or ( <= ( + X11 75 ) X12 )  ( <= ( + X12 91 ) X11 )  ( <= ( + Y11 2 ) Y12 )  ( <= ( + Y12 53 ) Y11 )  )
( or ( <= ( + X11 75 ) X13 )  ( <= ( + X13 31 ) X11 )  ( <= ( + Y11 2 ) Y13 )  ( <= ( + Y13 96 ) Y11 )  )
( or ( <= ( + X11 75 ) X14 )  ( <= ( + X14 22 ) X11 )  ( <= ( + Y11 2 ) Y14 )  ( <= ( + Y14 37 ) Y11 )  )
( or ( <= ( + X11 75 ) X15 )  ( <= ( + X15 64 ) X11 )  ( <= ( + Y11 2 ) Y15 )  ( <= ( + Y15 81 ) Y11 )  )
( or ( <= ( + X11 75 ) X16 )  ( <= ( + X16 72 ) X11 )  ( <= ( + Y11 2 ) Y16 )  ( <= ( + Y16 45 ) Y11 )  )
( or ( <= ( + X11 75 ) X17 )  ( <= ( + X17 37 ) X11 )  ( <= ( + Y11 2 ) Y17 )  ( <= ( + Y17 15 ) Y11 )  )
( or ( <= ( + X12 91 ) X13 )  ( <= ( + X13 31 ) X12 )  ( <= ( + Y12 53 ) Y13 )  ( <= ( + Y13 96 ) Y12 )  )
( or ( <= ( + X12 91 ) X14 )  ( <= ( + X14 22 ) X12 )  ( <= ( + Y12 53 ) Y14 )  ( <= ( + Y14 37 ) Y12 )  )
( or ( <= ( + X12 91 ) X15 )  ( <= ( + X15 64 ) X12 )  ( <= ( + Y12 53 ) Y15 )  ( <= ( + Y15 81 ) Y12 )  )
( or ( <= ( + X12 91 ) X16 )  ( <= ( + X16 72 ) X12 )  ( <= ( + Y12 53 ) Y16 )  ( <= ( + Y16 45 ) Y12 )  )
( or ( <= ( + X12 91 ) X17 )  ( <= ( + X17 37 ) X12 )  ( <= ( + Y12 53 ) Y17 )  ( <= ( + Y17 15 ) Y12 )  )
( or ( <= ( + X13 31 ) X14 )  ( <= ( + X14 22 ) X13 )  ( <= ( + Y13 96 ) Y14 )  ( <= ( + Y14 37 ) Y13 )  )
( or ( <= ( + X13 31 ) X15 )  ( <= ( + X15 64 ) X13 )  ( <= ( + Y13 96 ) Y15 )  ( <= ( + Y15 81 ) Y13 )  )
( or ( <= ( + X13 31 ) X16 )  ( <= ( + X16 72 ) X13 )  ( <= ( + Y13 96 ) Y16 )  ( <= ( + Y16 45 ) Y13 )  )
( or ( <= ( + X13 31 ) X17 )  ( <= ( + X17 37 ) X13 )  ( <= ( + Y13 96 ) Y17 )  ( <= ( + Y17 15 ) Y13 )  )
( or ( <= ( + X14 22 ) X15 )  ( <= ( + X15 64 ) X14 )  ( <= ( + Y14 37 ) Y15 )  ( <= ( + Y15 81 ) Y14 )  )
( or ( <= ( + X14 22 ) X16 )  ( <= ( + X16 72 ) X14 )  ( <= ( + Y14 37 ) Y16 )  ( <= ( + Y16 45 ) Y14 )  )
( or ( <= ( + X14 22 ) X17 )  ( <= ( + X17 37 ) X14 )  ( <= ( + Y14 37 ) Y17 )  ( <= ( + Y17 15 ) Y14 )  )
( or ( <= ( + X15 64 ) X16 )  ( <= ( + X16 72 ) X15 )  ( <= ( + Y15 81 ) Y16 )  ( <= ( + Y16 45 ) Y15 )  )
( or ( <= ( + X15 64 ) X17 )  ( <= ( + X17 37 ) X15 )  ( <= ( + Y15 81 ) Y17 )  ( <= ( + Y17 15 ) Y15 )  )
( or ( <= ( + X16 72 ) X17 )  ( <= ( + X17 37 ) X16 )  ( <= ( + Y16 45 ) Y17 )  ( <= ( + Y17 15 ) Y16 )  )
( >= X0 0)
( <= ( + X0 51) Z)
( >= Y0 0)
( <= ( + Y0 33 ) 100)
( >= X1 0)
( <= ( + X1 83) Z)
( >= Y1 0)
( <= ( + Y1 75 ) 100)
( >= X2 0)
( <= ( + X2 29) Z)
( >= Y2 0)
( <= ( + Y2 20 ) 100)
( >= X3 0)
( <= ( + X3 50) Z)
( >= Y3 0)
( <= ( + Y3 51 ) 100)
( >= X4 0)
( <= ( + X4 27) Z)
( >= Y4 0)
( <= ( + Y4 32 ) 100)
( >= X5 0)
( <= ( + X5 37) Z)
( >= Y5 0)
( <= ( + Y5 14 ) 100)
( >= X6 0)
( <= ( + X6 55) Z)
( >= Y6 0)
( <= ( + Y6 17 ) 100)
( >= X7 0)
( <= ( + X7 28) Z)
( >= Y7 0)
( <= ( + Y7 66 ) 100)
( >= X8 0)
( <= ( + X8 29) Z)
( >= Y8 0)
( <= ( + Y8 93 ) 100)
( >= X9 0)
( <= ( + X9 26) Z)
( >= Y9 0)
( <= ( + Y9 65 ) 100)
( >= X10 0)
( <= ( + X10 89) Z)
( >= Y10 0)
( <= ( + Y10 93 ) 100)
( >= X11 0)
( <= ( + X11 75) Z)
( >= Y11 0)
( <= ( + Y11 2 ) 100)
( >= X12 0)
( <= ( + X12 91) Z)
( >= Y12 0)
( <= ( + Y12 53 ) 100)
( >= X13 0)
( <= ( + X13 31) Z)
( >= Y13 0)
( <= ( + Y13 96 ) 100)
( >= X14 0)
( <= ( + X14 22) Z)
( >= Y14 0)
( <= ( + Y14 37 ) 100)
( >= X15 0)
( <= ( + X15 64) Z)
( >= Y15 0)
( <= ( + Y15 81 ) 100)
( >= X16 0)
( <= ( + X16 72) Z)
( >= Y16 0)
( <= ( + Y16 45 ) 100)
( >= X17 0)
( <= ( + X17 37) Z)
( >= Y17 0)
( <= ( + Y17 15 ) 100)
) )
)(=> $phi $goal))))